; aiosonic :: corpus-study/repo_src/aiosonic/aiosonic/connection.py :: LOCK 'Connection._connect_lock' :: naive encoding (verdict: unsat)
; Generated by snf-pipeline (encoder.py) -- run with any
; SMT-LIB2-compliant solver, e.g. `z3 aiosonic__corpus-study_repo_src_aiosonic_aiosonic_connection.py__Connection._connect_lock__naive.smt2`
; benchmark generated from python API
(set-info :status unknown)
(assert
 false)
(check-sat)
